minimum_spanning_tree.dat
data;


param n := 6;

param : E :   c :=
       1 2   2
       1 3   6
       2 4   4
       2 5   7
       3 4   2
       4 6   10
       5 6   9;
      

end;